p edge 36
e 0 14
e 0 18
e 0 22
e 1 8
e 1 17
e 1 22
e 2 6
e 2 16
e 2 26
e 2 29
e 2 31
e 3 7
e 3 24
e 3 32
e 3 33
e 4 11
e 4 21
e 4 35
e 5 8
e 5 9
e 5 20
e 5 30
e 6 13
e 6 16
e 6 19
e 6 28
e 6 29
e 6 33
e 7 10
e 7 24
e 7 25
e 7 28
e 7 32
e 8 9
e 8 13
e 8 17
e 8 25
e 8 30
e 10 14
e 10 17
e 10 25
e 10 32
e 11 27
e 11 35
e 12 15
e 12 20
e 12 26
e 12 34
e 13 16
e 13 25
e 13 28
e 13 30
e 14 17
e 14 22
e 14 32
e 15 23
e 15 34
e 16 26
e 16 30
e 17 22
e 17 25
e 18 32
e 19 21
e 19 29
e 19 33
e 19 35
e 20 26
e 20 30
e 21 35
e 23 26
e 23 31
e 23 34
e 24 28
e 24 33
e 25 28
e 26 30
e 26 31
e 26 34
e 27 35
e 28 33
e 33 35
c k 6
